p cnf 30 71
1 2 3 0
-1 -2 0
-1 -3 0
-2 -3 0
4 5 6 0
-4 -5 0
-4 -6 0
-5 -6 0
7 8 9 0
-7 -8 0
-7 -9 0
-8 -9 0
1 4 7 0
-1 -4 0
-1 -7 0
-4 -7 0
2 5 8 0
-2 -5 0
-2 -8 0
-5 -8 0
3 6 9 0
-3 -6 0
-3 -9 0
-6 -9 0
-1 -2 10 0
-4 -5 10 0
-7 -8 10 0
-2 -3 11 0
-5 -6 11 0
-8 -9 11 0
-10 -11 0
-1 -3 12 0
-4 -6 12 0
-7 -9 12 0
-3 -4 13 0
-6 -7 13 0
-2 -4 14 0
-5 -7 14 0
-3 -5 15 0
-6 -8 15 0
-14 -15 0
-1 -4 16 0
-4 -7 16 0
-2 -5 17 0
-5 -8 17 0
-3 -6 18 0
-6 -9 18 0
-16 -17 0
-16 -18 0
-17 -18 0
-1 -5 19 0
-4 -8 19 0
-2 -6 20 0
-5 -9 20 0
-19 -20 0
-1 -6 21 0
-4 -9 21 0
-3 -7 22 0
-2 -7 23 0
-3 -8 24 0
-23 -24 0
-1 -7 25 0
-2 -8 26 0
-3 -9 27 0
-25 -26 0
-25 -27 0
-26 -27 0
-1 -8 28 0
-2 -9 29 0
-28 -29 0
-1 -9 30 0
